NAME: tsp25_16
COMMENT: 25-tsp problem (Padberg/Rinaldi)
TYPE: TSP
DIMENSION: 25
EDGE_WEIGHT_TYPE : EUC_2D
NODE_COORD_SECTION
1.00 21.62 25.05
2.00 14.63 14.97
3.00 30.69 36.17
4.00 37.05 22.37
5.00 38.32 17.43
6.00 15.90 33.97
7.00 31.54 37.19
8.00 10.21 35.90
9.00 15.46 29.17
10.00 14.87 2.30
11.00 3.35 35.80
12.00 1.87 2.29
13.00 10.89 30.94
14.00 16.92 17.21
15.00 10.37 12.50
16.00 38.71 17.14
17.00 9.96 30.22
18.00 27.80 37.66
19.00 16.89 35.27
20.00 32.05 34.54
21.00 37.62 6.48
22.00 7.00 9.48
23.00 32.47 37.25
24.00 5.76 33.93
25.00 11.61 12.08
